
;this file is automatically generated: Mon Jul 29 14:43:37 IST 2019

;declarations generated

(declare-fun A0 () Int)
(declare-fun a_6_4 () Int)
(declare-fun A1 () Int)
(declare-fun A2 () Int)
(declare-fun A3 () Int)
(declare-fun A4 () Int)
(declare-fun A5 () Int)
(declare-fun A6 () Int)
(declare-fun A7 () Int)
(declare-fun s0 () Int)
(declare-fun s1 () Int)
(declare-fun s2 () Int)
(declare-fun s3 () Int)
(declare-fun s4 () Int)
(declare-fun s5 () Int)
(declare-fun s6 () Int)
(declare-fun s7 () Int)
(declare-fun s8 () Int)
(declare-fun s9 () Int)
(declare-fun a_5_5 () Int)
(declare-fun a_5_8 () Int)
(declare-fun a_0_3 () Int)
(declare-fun a_0_4 () Int)
(declare-fun a_7_4 () Int)
(declare-fun a_7_8 () Int)
(declare-fun a_2_4 () Int)
(declare-fun a_2_9 () Int)
(declare-fun a_6_10 () Int)
(declare-fun a_1_5 () Int)
(declare-fun a_1_9 () Int)
(declare-fun a_4_5 () Int)
(declare-fun a_3_5 () Int)
(declare-fun a_3_3 () Int)
(declare-fun s11 () Int)
(declare-fun s10 () Int)
(declare-fun s13 () Int)
(declare-fun s12 () Int)
(declare-fun s15 () Int)
(declare-fun s14 () Int)
(declare-fun a_4_10 () Int)

;formula(s) generated
(assert (and (>= A0 0) (<= A0 1)))
(assert (and (>= A1 0) (<= A1 1)))
(assert (and (>= A2 0) (<= A2 1)))
(assert (and (>= A3 0) (<= A3 1)))
(assert (and (>= A4 0) (<= A4 1)))
(assert (and (>= A5 0) (<= A5 1)))
(assert (and (>= A6 0) (<= A6 1)))
(assert (and (>= A7 0) (<= A7 1)))
(assert (and (>= s0 0) (<= s0 1)))
(assert (and (>= s1 0) (<= s1 1)))
(assert (and (>= s2 0) (<= s2 1)))
(assert (and (>= s3 0) (<= s3 1)))
(assert (and (>= s4 0) (<= s4 1)))
(assert (and (>= s5 0) (<= s5 1)))
(assert (and (>= s6 0) (<= s6 1)))
(assert (and (>= s7 0) (<= s7 1)))
(assert (and (>= s8 0) (<= s8 1)))
(assert (and (>= s9 0) (<= s9 1)))
(assert (and (>= s10 0) (<= s10 1)))
(assert (and (>= s11 0) (<= s11 1)))
(assert (and (>= s12 0) (<= s12 1)))
(assert (and (>= s13 0) (<= s13 1)))
(assert (and (>= s14 0) (<= s14 1)))
(assert (and (>= s15 0) (<= s15 1)))
(assert (and (>= a_0_3 0) (<= a_0_3 1)))
(assert (and (>= a_0_4 0) (<= a_0_4 1)))
(assert (and (>= a_1_5 0) (<= a_1_5 1)))
(assert (and (>= a_1_9 0) (<= a_1_9 1)))
(assert (and (>= a_2_4 0) (<= a_2_4 1)))
(assert (and (>= a_2_9 0) (<= a_2_9 1)))
(assert (and (>= a_3_3 0) (<= a_3_3 1)))
(assert (and (>= a_3_5 0) (<= a_3_5 1)))
(assert (and (>= a_4_5 0) (<= a_4_5 1)))
(assert (and (>= a_4_10 0) (<= a_4_10 1)))
(assert (and (>= a_5_5 0) (<= a_5_5 1)))
(assert (and (>= a_5_8 0) (<= a_5_8 1)))
(assert (and (>= a_6_4 0) (<= a_6_4 1)))
(assert (and (>= a_6_10 0) (<= a_6_10 1)))
(assert (and (>= a_7_4 0) (<= a_7_4 1)))
(assert (and (>= a_7_8 0) (<= a_7_8 1)))
(assert (= s0 0))
(assert (= s1 0))
(assert (= s2 0))
(assert (=> (= s3 1) (and (= a_0_3 1) (= a_3_3 1))))
(assert (=> (= s3 0) (and (= a_0_3 0) (= a_3_3 0))))
(assert (=> (= s4 1) (and (and (and (= a_0_4 1) (= a_2_4 1)) (= a_6_4 1)) (= a_7_4 1))))
(assert (=> (= s4 0) (and (and (and (= a_0_4 0) (= a_2_4 0)) (= a_6_4 0)) (= a_7_4 0))))
(assert (=> (= s5 1) (and (and (and (= a_1_5 1) (= a_3_5 1)) (= a_4_5 1)) (= a_5_5 1))))
(assert (=> (= s5 0) (and (and (and (= a_1_5 0) (= a_3_5 0)) (= a_4_5 0)) (= a_5_5 0))))
(assert (= s6 0))
(assert (= s7 0))
(assert (=> (= s8 1) (and (= a_5_8 1) (= a_7_8 1))))
(assert (=> (= s8 0) (and (= a_5_8 0) (= a_7_8 0))))
(assert (=> (= s9 1) (and (= a_1_9 1) (= a_2_9 1))))
(assert (=> (= s9 0) (and (= a_1_9 0) (= a_2_9 0))))
(assert (=> (= s10 1) (and (= a_4_10 1) (= a_6_10 1))))
(assert (=> (= s10 0) (and (= a_4_10 0) (= a_6_10 0))))
(assert (= s11 0))
(assert (= s12 0))
(assert (= s13 0))
(assert (= s14 0))
(assert (= s15 0))
(assert (=> (or (= a_0_3 1) (= a_0_4 1)) (= A0 1)))
(assert (=> (and (= a_0_3 0) (= a_0_4 0)) (= A0 0)))
(assert (=> (or (= a_1_5 1) (= a_1_9 1)) (= A1 1)))
(assert (=> (and (= a_1_5 0) (= a_1_9 0)) (= A1 0)))
(assert (=> (or (= a_2_4 1) (= a_2_9 1)) (= A2 1)))
(assert (=> (and (= a_2_4 0) (= a_2_9 0)) (= A2 0)))
(assert (=> (or (= a_3_3 1) (= a_3_5 1)) (= A3 1)))
(assert (=> (and (= a_3_3 0) (= a_3_5 0)) (= A3 0)))
(assert (=> (or (= a_4_5 1) (= a_4_10 1)) (= A4 1)))
(assert (=> (and (= a_4_5 0) (= a_4_10 0)) (= A4 0)))
(assert (=> (or (= a_5_5 1) (= a_5_8 1)) (= A5 1)))
(assert (=> (and (= a_5_5 0) (= a_5_8 0)) (= A5 0)))
(assert (=> (or (= a_6_4 1) (= a_6_10 1)) (= A6 1)))
(assert (=> (and (= a_6_4 0) (= a_6_10 0)) (= A6 0)))
(assert (=> (or (= a_7_4 1) (= a_7_8 1)) (= A7 1)))
(assert (=> (and (= a_7_4 0) (= a_7_8 0)) (= A7 0)))
(assert (= (+ (+ (+ (+ (+ (+ (+ A0 A1) A2) A3) A4) A5) A6) A7) 8))
(assert (not (and (= s4 1) (= s5 1)) ))
(assert (not (and (and (and (= s3 1) (= s8 1)) (= s9 1)) (= s10 1)) ))
(assert (= (+ (+ (+ (+ (+ (+ (+ (+ (+ (+ (+ (+ (+ (+ (+ s0 s1) s2) s3) s4) s5) s6) s7) s8) s9) s10) s11) s12) s13) s14) s15) 17))
